%
% Generated Sudoku 25x25
% Density approximation: 0.20
%
x = array2d(1..n, 1..n, [
   _,   _,  23,   _,   _,   3,   _,   _,   9,   _,  19,   _,  16,   _,   _,  17,  12,   _,   _,   _,   _,   _,   _,   _,   _,
  12,   _,   6,   _,   7,   _,   _,   _,   _,   _,   _,   _,   _,   _,   _,   8,   _,   _,   _,   _,   _,   _,   _,  21,   _,
   _,   _,   _,   _,   _,  23,  20,  16,   _,   _,   _,   _,   _,   _,   _,   _,  21,   _,   _,   _,   _,   _,   _,   _,   _,
   5,   _,   _,   _,   _,   _,  15,   _,   _,   _,   _,   _,   _,   _,   _,   _,   _,   _,   _,   _,   _,   _,   _,   _,   _,
   _,   _,   _,  19,   _,   _,  14,   _,   _,   _,   1,   _,   _,  23,   _,   _,   _,   _,   _,   _,   _,  15,   _,   _,   _,
   _,   _,   _,   _,   _,  18,   _,  22,  19,   _,   _,   _,   5,   _,   _,   _,   _,   _,   _,   _,  15,   _,   _,   _,   _,
   _,   _,  19,   _,   _,   _,   6,  15,   7,  25,  13,   _,   _,   _,   _,   9,   _,  14,  24,  11,   _,   4,   _,   _,   _,
   _,   _,   _,   _,   _,   _,   _,  17,   _,   _,   _,   7,   _,   _,   _,   _,   _,   _,   _,   _,   _,   _,   _,   _,   _,
   _,   _,   _,   _,  10,   _,   _,   _,   _,   _,   _,   _,  20,   _,   _,   _,   _,   _,   _,   6,   _,   _,   9,   _,   _,
   _,  24,   _,   _,   _,  20,   _,   _,   _,   _,   _,   _,   6,   _,   _,   _,   _,  19,   _,   _,   5,  17,   _,   1,   _,
   _,   _,   _,   _,   _,  13,   _,   _,   _,   _,   _,   4,  19,   _,   _,   _,   _,   _,  25,   3,   _,   _,   _,   _,   _,
   _,   _,  10,   _,   1,   _,   _,   _,   _,   7,  15,   _,   _,   _,   _,   _,   _,   _,  12,   _,   _,   _,   _,   _,   _,
   _,   _,   _,   _,   _,   _,   1,  20,   _,   _,   _,  10,   _,   _,   _,   6,   _,   4,   _,   _,   _,   _,   _,   _,  23,
   _,   _,   _,   _,   _,   _,   _,   6,   _,   _,   _,   _,   _,   _,   _,   _,   _,  24,   _,   _,   _,  19,   _,   _,  13,
   _,  25,   _,   _,   _,   _,   _,   _,   _,   _,   _,   _,  18,   _,   _,   _,   _,   _,   _,  16,   _,   _,   _,   _,   _,
   _,   _,   1,  25,   _,   7,   _,   _,   _,   _,   _,  15,   _,   _,   _,   _,   _,   _,   _,  12,   9,   _,   _,   _,   _,
   6,   _,   5,  11,   _,   _,   _,   _,   _,   _,   _,  22,   _,   _,   _,   _,   _,   _,   _,  25,   _,   _,   _,   _,   _,
  20,   _,   _,   _,   _,   _,  21,   _,   _,   _,   _,   _,   _,  19,   _,   _,   _,   _,   _,   _,   _,  13,   _,   _,   _,
   _,   _,   _,   _,   _,   _,   _,   _,   _,   _,   _,   _,   _,   _,   _,   _,   _,  16,   _,   _,   _,   _,   _,   _,   _,
  10,  13,   8,  14,   _,  19,   _,   _,   _,  12,   _,  20,   _,   _,   _,   _,   _,  21,   _,   _,   _,   _,   1,   _,  16,
   _,   _,   _,   5,   _,   _,   _,   _,   _,   _,   _,  12,   _,   _,   _,   4,   _,   _,   _,   _,  14,   _,   _,  17,  11,
   8,   _,   _,   _,   _,   _,   _,   _,   _,   3,   _,  14,   _,   _,   _,   _,   _,   _,   _,   _,  24,   _,   _,   _,   _,
   9,   _,   _,  20,   _,  21,  25,   _,   _,   _,   _,   _,   _,   _,   _,   _,   _,   _,  16,  24,   _,   _,   _,   _,   _,
  25,   _,   _,   _,   _,   _,   _,   _,  20,   _,   _,   _,  21,   _,   _,   _,   _,   _,  11,   7,   _,   _,   _,   _,   _,
   _,  22,   _,   _,   _,   4,   _,   _,   _,   _,   _,   _,   _,   _,   _,   _,   _,   _,   _,   _,   _,   _,  21,   _,   _
]);

n = 25;
